Maximize
  - 2.9592987555264 edge_0_1_0_0 - 2.7399877797463 edge_0_2_0_0
   - 0.02964917190543 edge_0_3_0_0 - 2.6464227493984 edge_0_13_0_0
   - 1.9120353917887 edge_0_15_0_0 - 3.649394746458 edge_0_19_0_0
   - 1.090680652152 edge_0_22_0_0 - 3.8977820833553 edge_0_25_0_0
   - 1.4323912384442 edge_0_28_0_0 - 2.553322255974 edge_0_30_0_0
   + 0.6135200885477999 edge_1_2_0_0 + 1.021290264529385 edge_1_3_0_0
   - 0.209819371056438 edge_1_4_0_0 + 0.160684409126164 edge_1_30_0_0
   + 0.6193894208356799 edge_2_1_0_0 + 0.728249542996234 edge_2_3_0_0
   + 0.7061759360262 edge_2_4_0_0 + 1.0054430536444 edge_2_5_0_0
   - 0.99844621789372 edge_2_13_0_0 + 1.395391542227543 edge_2_30_0_0
   + 2.592119320426649 edge_3_1_0_0 + 3.285322618105902 edge_3_2_0_0
   + 1.252605042016424 edge_3_4_0_0 + 0.4519386830018389 edge_3_5_0_0
   + 0.2589985420369525 edge_3_6_0_0 + 0.6036771261917712 edge_3_9_0_0
   - 0.5876948993480631 edge_3_10_0_0 + 0.1899065889673292 edge_3_11_0_0
   + 0.2635183894442646 edge_3_13_0_0 + 0.0563948136870375 edge_3_15_0_0
   + 0.3100213546758337 edge_3_16_0_0 - 0.4749994525240245 edge_3_17_0_0
   + 0.072638771598843 edge_3_18_0_0 - 0.0688002525353705 edge_3_19_0_0
   - 0.3560069923016933 edge_3_25_0_0 + 0.9628762283731415 edge_3_30_0_0
   - 0.7494267289585643 edge_5_1_0_0 - 0.21783333756694 edge_5_2_0_0
   + 0.1286326384224189 edge_5_3_0_0 - 0.2903769997706119 edge_5_4_0_0
   + 0.5280649214238745 edge_5_6_0_0 + 0.4826784064374854 edge_5_9_0_0
   - 0.491928653957106 edge_5_10_0_0 - 0.1017759643933398 edge_5_11_0_0
   - 1.045079761274735 edge_5_13_0_0 - 0.7290289962169395 edge_5_15_0_0
   - 0.4607947710022321 edge_5_16_0_0 - 2.161869274997275 edge_5_19_0_0
   - 0.137021466421152 edge_6_4_0_0 + 0.5753703034285783 edge_6_9_0_0
   + 0.264492638857479 edge_10_9_0_0 - 0.311779522548824 edge_10_11_0_0
   - 0.2258668199278856 edge_11_9_0_0 + 0.2730288668465814 edge_11_10_0_0
   + 0.1323777333333878 edge_11_15_0_0 - 0.0764347120981352 edge_11_16_0_0
   + 0.7081624690329028 edge_13_1_0_0 + 0.018353448140816 edge_13_2_0_0
   + 0.0831620395262576 edge_13_3_0_0 - 0.4622086202101099 edge_13_4_0_0
   + 0.7682300488575754 edge_13_5_0_0 + 0.9874259245091752 edge_13_6_0_0
   + 1.477566124207938 edge_13_9_0_0 + 2.936992593800352 edge_13_10_0_0
   + 3.753715666770531 edge_13_11_0_0 + 0.2565573212760422 edge_13_14_0_0
   + 2.603566933718966 edge_13_15_0_0 + 1.331978995493204 edge_13_16_0_0
   - 0.1239814736171678 edge_13_17_0_0 - 0.0166790729631261 edge_13_18_0_0
   + 1.496515707033606 edge_13_19_0_0 + 0.2460992278117374 edge_13_22_0_0
   - 0.3841156150107385 edge_13_24_0_0 + 0.4851844651628249 edge_13_25_0_0
   - 1.490472364728992 edge_13_28_0_0 + 0.1200985707897518 edge_13_29_0_0
   - 0.5326752445234383 edge_15_1_0_0 - 0.10799571108023 edge_15_2_0_0
   - 0.0810953267700588 edge_15_3_0_0 - 0.705094012298662 edge_15_5_0_0
   + 0.1651341975876159 edge_15_6_0_0 + 0.3246772860627232 edge_15_9_0_0
   + 1.111412070369526 edge_15_10_0_0 + 1.043340517643774 edge_15_11_0_0
   + 0.5861745039297418 edge_15_13_0_0 + 3.101350848775287 edge_15_14_0_0
   + 0.4549556418541064 edge_15_16_0_0 + 0.1214685876311976 edge_15_17_0_0
   - 0.4891946082209179 edge_15_18_0_0 - 0.1504512437461542 edge_15_19_0_0
   + 0.0583201139979778 edge_15_22_0_0 - 1.321303657745672 edge_15_25_0_0
   - 1.924833394085771 edge_15_28_0_0 - 2.052883335463004 edge_15_29_0_0
   - 0.2670224791033508 edge_16_17_0_0 - 0.2206853002439268 edge_17_18_0_0
   - 0.1392481478887428 edge_17_19_0_0 - 0.00105719216535817 edge_17_22_0_0
   + 0.0821663546743349 edge_18_16_0_0 + 0.6590475241342354 edge_18_17_0_0
   + 0.5193634142403151 edge_18_22_0_0 - 0.542312457151315 edge_18_24_0_0
   - 0.7739652445093371 edge_18_28_0_0 - 0.4295796132534813 edge_19_1_0_0
   - 1.2117161327322 edge_19_2_0_0 - 0.5749138402392797 edge_19_3_0_0
   - 0.3323334816362716 edge_19_5_0_0 - 0.1114862475032493 edge_19_6_0_0
   + 0.3842540737622247 edge_19_9_0_0 + 0.9026458158965651 edge_19_10_0_0
   + 1.047618949721891 edge_19_11_0_0 + 0.4540835297106866 edge_19_13_0_0
   + 0.5889051467990174 edge_19_14_0_0 + 1.008890785390602 edge_19_15_0_0
   + 0.3395212255857066 edge_19_16_0_0 + 1.484249685602349 edge_19_17_0_0
   + 3.49592269112385 edge_19_18_0_0 + 0.430706450121376 edge_19_21_0_0
   + 3.034194596553181 edge_19_22_0_0 + 0.00334272 edge_19_24_0_0
   + 0.7443824276533356 edge_19_25_0_0 - 0.0728892543991878 edge_19_28_0_0
   + 0.5426973538825256 edge_19_29_0_0 - 0.7126463591128074 edge_21_18_0_0
   - 0.2485101566030618 edge_22_1_0_0 + 0.4678913221164001 edge_22_2_0_0
   + 0.5536529362173084 edge_22_3_0_0 - 0.562713977895303 edge_22_5_0_0
   + 0.9419113959839652 edge_22_6_0_0 + 0.5694798124107061 edge_22_10_0_0
   + 1.331249245526976 edge_22_11_0_0 + 0.4991875593243591 edge_22_13_0_0
   + 0.836754584699718 edge_22_14_0_0 + 0.1983145017181599 edge_22_15_0_0
   + 0.0594123777965882 edge_22_16_0_0 + 0.6692965081933347 edge_22_17_0_0
   + 2.017931317002365 edge_22_18_0_0 + 1.702717045657596 edge_22_19_0_0
   + 4.085768974599767 edge_22_21_0_0 - 0.3041928052864725 edge_22_24_0_0
   + 0.9454262335291692 edge_22_25_0_0 - 0.2625102873243984 edge_22_28_0_0
   - 0.3946877272353948 edge_22_29_0_0 + 0.5255237532839608 edge_24_25_0_0
   - 0.2647761011918659 edge_24_28_0_0 - 0.2066150153070982 edge_24_29_0_0
   - 2.059377011736236 edge_25_1_0_0 - 1.080709058507469 edge_25_3_0_0
   - 1.93499567375052 edge_25_6_0_0 - 1.300680477834211 edge_25_10_0_0
   - 1.029510805380373 edge_25_11_0_0 - 0.2629049912890627 edge_25_13_0_0
   - 0.4901363129019476 edge_25_15_0_0 + 0.00568964856614777 edge_25_17_0_0
   + 0.00111682011585998 edge_25_18_0_0 + 0.8802842452024032 edge_25_19_0_0
   - 0.1348965076203963 edge_25_22_0_0 + 0.9196370872998207 edge_25_24_0_0
   + 0.2284874155588873 edge_25_27_0_0 + 2.632154856703547 edge_25_28_0_0
   + 1.543317179473306 edge_25_29_0_0 + 0.7514982619031868 edge_27_29_0_0
   - 1.0256322456404 edge_28_2_0_0 - 0.0269645476335709 edge_28_18_0_0
   - 1.081433410640014 edge_28_22_0_0 + 0.4051707867561686 edge_28_24_0_0
   + 0.6540100587698821 edge_28_25_0_0 + 3.267262118872367 edge_28_27_0_0
   + 2.821018949924486 edge_28_29_0_0 - 0.2617551392935374 edge_29_24_0_0
   + 1.545025190395823 edge_29_27_0_0 + 1.075899088579722 edge_29_28_0_0
   - 0.685501869562858 edge_30_1_0_0 - 0.595613400337104 edge_30_2_0_0
   - 0.7516438826722418 edge_30_3_0_0
Subject To
 one_parent_1: edge_0_1_0_0 + edge_2_1_0_0 + edge_3_1_0_0 + edge_5_1_0_0
   + edge_13_1_0_0 + edge_15_1_0_0 + edge_19_1_0_0 + edge_22_1_0_0
   + edge_25_1_0_0 + edge_30_1_0_0 = 1
 consume_one_flow_unit_1: flow_0_1_0_0 - flow_1_2_0_0 - flow_1_3_0_0
   - flow_1_4_0_0 - flow_1_30_0_0 + flow_2_1_0_0 + flow_3_1_0_0
   + flow_5_1_0_0 + flow_13_1_0_0 + flow_15_1_0_0 + flow_19_1_0_0
   + flow_22_1_0_0 + flow_25_1_0_0 + flow_30_1_0_0 = 1
 one_parent_2: edge_0_2_0_0 + edge_1_2_0_0 + edge_3_2_0_0 + edge_5_2_0_0
   + edge_13_2_0_0 + edge_15_2_0_0 + edge_19_2_0_0 + edge_22_2_0_0
   + edge_28_2_0_0 + edge_30_2_0_0 = 1
 consume_one_flow_unit_2: flow_0_2_0_0 + flow_1_2_0_0 - flow_2_1_0_0
   - flow_2_3_0_0 - flow_2_4_0_0 - flow_2_5_0_0 - flow_2_13_0_0
   - flow_2_30_0_0 + flow_3_2_0_0 + flow_5_2_0_0 + flow_13_2_0_0
   + flow_15_2_0_0 + flow_19_2_0_0 + flow_22_2_0_0 + flow_28_2_0_0
   + flow_30_2_0_0 = 1
 one_parent_3: edge_0_3_0_0 + edge_1_3_0_0 + edge_2_3_0_0 + edge_5_3_0_0
   + edge_13_3_0_0 + edge_15_3_0_0 + edge_19_3_0_0 + edge_22_3_0_0
   + edge_25_3_0_0 + edge_30_3_0_0 = 1
 consume_one_flow_unit_3: flow_0_3_0_0 + flow_1_3_0_0 + flow_2_3_0_0
   - flow_3_1_0_0 - flow_3_2_0_0 - flow_3_4_0_0 - flow_3_5_0_0
   - flow_3_6_0_0 - flow_3_9_0_0 - flow_3_10_0_0 - flow_3_11_0_0
   - flow_3_13_0_0 - flow_3_15_0_0 - flow_3_16_0_0 - flow_3_17_0_0
   - flow_3_18_0_0 - flow_3_19_0_0 - flow_3_25_0_0 - flow_3_30_0_0
   + flow_5_3_0_0 + flow_13_3_0_0 + flow_15_3_0_0 + flow_19_3_0_0
   + flow_22_3_0_0 + flow_25_3_0_0 + flow_30_3_0_0 = 1
 one_parent_4: edge_1_4_0_0 + edge_2_4_0_0 + edge_3_4_0_0 + edge_5_4_0_0
   + edge_6_4_0_0 + edge_13_4_0_0 = 1
 consume_one_flow_unit_4: flow_1_4_0_0 + flow_2_4_0_0 + flow_3_4_0_0
   + flow_5_4_0_0 + flow_6_4_0_0 + flow_13_4_0_0 = 1
 one_parent_5: edge_2_5_0_0 + edge_3_5_0_0 + edge_13_5_0_0 + edge_15_5_0_0
   + edge_19_5_0_0 + edge_22_5_0_0 = 1
 consume_one_flow_unit_5: flow_2_5_0_0 + flow_3_5_0_0 - flow_5_1_0_0
   - flow_5_2_0_0 - flow_5_3_0_0 - flow_5_4_0_0 - flow_5_6_0_0
   - flow_5_9_0_0 - flow_5_10_0_0 - flow_5_11_0_0 - flow_5_13_0_0
   - flow_5_15_0_0 - flow_5_16_0_0 - flow_5_19_0_0 + flow_13_5_0_0
   + flow_15_5_0_0 + flow_19_5_0_0 + flow_22_5_0_0 = 1
 one_parent_6: edge_3_6_0_0 + edge_5_6_0_0 + edge_13_6_0_0 + edge_15_6_0_0
   + edge_19_6_0_0 + edge_22_6_0_0 + edge_25_6_0_0 = 1
 consume_one_flow_unit_6: flow_3_6_0_0 + flow_5_6_0_0 - flow_6_4_0_0
   - flow_6_9_0_0 + flow_13_6_0_0 + flow_15_6_0_0 + flow_19_6_0_0
   + flow_22_6_0_0 + flow_25_6_0_0 = 1
 one_parent_7: = 1
 consume_one_flow_unit_7: = 1
 one_parent_8: = 1
 consume_one_flow_unit_8: = 1
 one_parent_9: edge_3_9_0_0 + edge_5_9_0_0 + edge_6_9_0_0 + edge_10_9_0_0
   + edge_11_9_0_0 + edge_13_9_0_0 + edge_15_9_0_0 + edge_19_9_0_0 = 1
 consume_one_flow_unit_9: flow_3_9_0_0 + flow_5_9_0_0 + flow_6_9_0_0
   + flow_10_9_0_0 + flow_11_9_0_0 + flow_13_9_0_0 + flow_15_9_0_0
   + flow_19_9_0_0 = 1
 one_parent_10: edge_3_10_0_0 + edge_5_10_0_0 + edge_11_10_0_0
   + edge_13_10_0_0 + edge_15_10_0_0 + edge_19_10_0_0 + edge_22_10_0_0
   + edge_25_10_0_0 = 1
 consume_one_flow_unit_10: flow_3_10_0_0 + flow_5_10_0_0 - flow_10_9_0_0
   - flow_10_11_0_0 + flow_11_10_0_0 + flow_13_10_0_0 + flow_15_10_0_0
   + flow_19_10_0_0 + flow_22_10_0_0 + flow_25_10_0_0 = 1
 one_parent_11: edge_3_11_0_0 + edge_5_11_0_0 + edge_10_11_0_0
   + edge_13_11_0_0 + edge_15_11_0_0 + edge_19_11_0_0 + edge_22_11_0_0
   + edge_25_11_0_0 = 1
 consume_one_flow_unit_11: flow_3_11_0_0 + flow_5_11_0_0 + flow_10_11_0_0
   - flow_11_9_0_0 - flow_11_10_0_0 - flow_11_15_0_0 - flow_11_16_0_0
   + flow_13_11_0_0 + flow_15_11_0_0 + flow_19_11_0_0 + flow_22_11_0_0
   + flow_25_11_0_0 = 1
 one_parent_12: = 1
 consume_one_flow_unit_12: = 1
 one_parent_13: edge_0_13_0_0 + edge_2_13_0_0 + edge_3_13_0_0
   + edge_5_13_0_0 + edge_15_13_0_0 + edge_19_13_0_0 + edge_22_13_0_0
   + edge_25_13_0_0 = 1
 consume_one_flow_unit_13: flow_0_13_0_0 + flow_2_13_0_0 + flow_3_13_0_0
   + flow_5_13_0_0 - flow_13_1_0_0 - flow_13_2_0_0 - flow_13_3_0_0
   - flow_13_4_0_0 - flow_13_5_0_0 - flow_13_6_0_0 - flow_13_9_0_0
   - flow_13_10_0_0 - flow_13_11_0_0 - flow_13_14_0_0 - flow_13_15_0_0
   - flow_13_16_0_0 - flow_13_17_0_0 - flow_13_18_0_0 - flow_13_19_0_0
   - flow_13_22_0_0 - flow_13_24_0_0 - flow_13_25_0_0 - flow_13_28_0_0
   - flow_13_29_0_0 + flow_15_13_0_0 + flow_19_13_0_0 + flow_22_13_0_0
   + flow_25_13_0_0 = 1
 one_parent_14: edge_13_14_0_0 + edge_15_14_0_0 + edge_19_14_0_0
   + edge_22_14_0_0 = 1
 consume_one_flow_unit_14: flow_13_14_0_0 + flow_15_14_0_0 + flow_19_14_0_0
   + flow_22_14_0_0 = 1
 one_parent_15: edge_0_15_0_0 + edge_3_15_0_0 + edge_5_15_0_0
   + edge_11_15_0_0 + edge_13_15_0_0 + edge_19_15_0_0 + edge_22_15_0_0
   + edge_25_15_0_0 = 1
 consume_one_flow_unit_15: flow_0_15_0_0 + flow_3_15_0_0 + flow_5_15_0_0
   + flow_11_15_0_0 + flow_13_15_0_0 - flow_15_1_0_0 - flow_15_2_0_0
   - flow_15_3_0_0 - flow_15_5_0_0 - flow_15_6_0_0 - flow_15_9_0_0
   - flow_15_10_0_0 - flow_15_11_0_0 - flow_15_13_0_0 - flow_15_14_0_0
   - flow_15_16_0_0 - flow_15_17_0_0 - flow_15_18_0_0 - flow_15_19_0_0
   - flow_15_22_0_0 - flow_15_25_0_0 - flow_15_28_0_0 - flow_15_29_0_0
   + flow_19_15_0_0 + flow_22_15_0_0 + flow_25_15_0_0 = 1
 one_parent_16: edge_3_16_0_0 + edge_5_16_0_0 + edge_11_16_0_0
   + edge_13_16_0_0 + edge_15_16_0_0 + edge_18_16_0_0 + edge_19_16_0_0
   + edge_22_16_0_0 = 1
 consume_one_flow_unit_16: flow_3_16_0_0 + flow_5_16_0_0 + flow_11_16_0_0
   + flow_13_16_0_0 + flow_15_16_0_0 - flow_16_17_0_0 + flow_18_16_0_0
   + flow_19_16_0_0 + flow_22_16_0_0 = 1
 one_parent_17: edge_3_17_0_0 + edge_13_17_0_0 + edge_15_17_0_0
   + edge_16_17_0_0 + edge_18_17_0_0 + edge_19_17_0_0 + edge_22_17_0_0
   + edge_25_17_0_0 = 1
 consume_one_flow_unit_17: flow_3_17_0_0 + flow_13_17_0_0 + flow_15_17_0_0
   + flow_16_17_0_0 - flow_17_18_0_0 - flow_17_19_0_0 - flow_17_22_0_0
   + flow_18_17_0_0 + flow_19_17_0_0 + flow_22_17_0_0 + flow_25_17_0_0 = 1
 one_parent_18: edge_3_18_0_0 + edge_13_18_0_0 + edge_15_18_0_0
   + edge_17_18_0_0 + edge_19_18_0_0 + edge_21_18_0_0 + edge_22_18_0_0
   + edge_25_18_0_0 + edge_28_18_0_0 = 1
 consume_one_flow_unit_18: flow_3_18_0_0 + flow_13_18_0_0 + flow_15_18_0_0
   + flow_17_18_0_0 - flow_18_16_0_0 - flow_18_17_0_0 - flow_18_22_0_0
   - flow_18_24_0_0 - flow_18_28_0_0 + flow_19_18_0_0 + flow_21_18_0_0
   + flow_22_18_0_0 + flow_25_18_0_0 + flow_28_18_0_0 = 1
 one_parent_19: edge_0_19_0_0 + edge_3_19_0_0 + edge_5_19_0_0
   + edge_13_19_0_0 + edge_15_19_0_0 + edge_17_19_0_0 + edge_22_19_0_0
   + edge_25_19_0_0 = 1
 consume_one_flow_unit_19: flow_0_19_0_0 + flow_3_19_0_0 + flow_5_19_0_0
   + flow_13_19_0_0 + flow_15_19_0_0 + flow_17_19_0_0 - flow_19_1_0_0
   - flow_19_2_0_0 - flow_19_3_0_0 - flow_19_5_0_0 - flow_19_6_0_0
   - flow_19_9_0_0 - flow_19_10_0_0 - flow_19_11_0_0 - flow_19_13_0_0
   - flow_19_14_0_0 - flow_19_15_0_0 - flow_19_16_0_0 - flow_19_17_0_0
   - flow_19_18_0_0 - flow_19_21_0_0 - flow_19_22_0_0 - flow_19_24_0_0
   - flow_19_25_0_0 - flow_19_28_0_0 - flow_19_29_0_0 + flow_22_19_0_0
   + flow_25_19_0_0 = 1
 one_parent_20: = 1
 consume_one_flow_unit_20: = 1
 one_parent_21: edge_19_21_0_0 + edge_22_21_0_0 = 1
 consume_one_flow_unit_21: flow_19_21_0_0 - flow_21_18_0_0 + flow_22_21_0_0
   = 1
 one_parent_22: edge_0_22_0_0 + edge_13_22_0_0 + edge_15_22_0_0
   + edge_17_22_0_0 + edge_18_22_0_0 + edge_19_22_0_0 + edge_25_22_0_0
   + edge_28_22_0_0 = 1
 consume_one_flow_unit_22: flow_0_22_0_0 + flow_13_22_0_0 + flow_15_22_0_0
   + flow_17_22_0_0 + flow_18_22_0_0 + flow_19_22_0_0 - flow_22_1_0_0
   - flow_22_2_0_0 - flow_22_3_0_0 - flow_22_5_0_0 - flow_22_6_0_0
   - flow_22_10_0_0 - flow_22_11_0_0 - flow_22_13_0_0 - flow_22_14_0_0
   - flow_22_15_0_0 - flow_22_16_0_0 - flow_22_17_0_0 - flow_22_18_0_0
   - flow_22_19_0_0 - flow_22_21_0_0 - flow_22_24_0_0 - flow_22_25_0_0
   - flow_22_28_0_0 - flow_22_29_0_0 + flow_25_22_0_0 + flow_28_22_0_0 = 1
 one_parent_23: = 1
 consume_one_flow_unit_23: = 1
 one_parent_24: edge_13_24_0_0 + edge_18_24_0_0 + edge_19_24_0_0
   + edge_22_24_0_0 + edge_25_24_0_0 + edge_28_24_0_0 + edge_29_24_0_0 = 1
 consume_one_flow_unit_24: flow_13_24_0_0 + flow_18_24_0_0 + flow_19_24_0_0
   + flow_22_24_0_0 - flow_24_25_0_0 - flow_24_28_0_0 - flow_24_29_0_0
   + flow_25_24_0_0 + flow_28_24_0_0 + flow_29_24_0_0 = 1
 one_parent_25: edge_0_25_0_0 + edge_3_25_0_0 + edge_13_25_0_0
   + edge_15_25_0_0 + edge_19_25_0_0 + edge_22_25_0_0 + edge_24_25_0_0
   + edge_28_25_0_0 = 1
 consume_one_flow_unit_25: flow_0_25_0_0 + flow_3_25_0_0 + flow_13_25_0_0
   + flow_15_25_0_0 + flow_19_25_0_0 + flow_22_25_0_0 + flow_24_25_0_0
   - flow_25_1_0_0 - flow_25_3_0_0 - flow_25_6_0_0 - flow_25_10_0_0
   - flow_25_11_0_0 - flow_25_13_0_0 - flow_25_15_0_0 - flow_25_17_0_0
   - flow_25_18_0_0 - flow_25_19_0_0 - flow_25_22_0_0 - flow_25_24_0_0
   - flow_25_27_0_0 - flow_25_28_0_0 - flow_25_29_0_0 + flow_28_25_0_0 = 1
 one_parent_26: = 1
 consume_one_flow_unit_26: = 1
 one_parent_27: edge_25_27_0_0 + edge_28_27_0_0 + edge_29_27_0_0 = 1
 consume_one_flow_unit_27: flow_25_27_0_0 - flow_27_29_0_0 + flow_28_27_0_0
   + flow_29_27_0_0 = 1
 one_parent_28: edge_0_28_0_0 + edge_13_28_0_0 + edge_15_28_0_0
   + edge_18_28_0_0 + edge_19_28_0_0 + edge_22_28_0_0 + edge_24_28_0_0
   + edge_25_28_0_0 + edge_29_28_0_0 = 1
 consume_one_flow_unit_28: flow_0_28_0_0 + flow_13_28_0_0 + flow_15_28_0_0
   + flow_18_28_0_0 + flow_19_28_0_0 + flow_22_28_0_0 + flow_24_28_0_0
   + flow_25_28_0_0 - flow_28_2_0_0 - flow_28_18_0_0 - flow_28_22_0_0
   - flow_28_24_0_0 - flow_28_25_0_0 - flow_28_27_0_0 - flow_28_29_0_0
   + flow_29_28_0_0 = 1
 one_parent_29: edge_13_29_0_0 + edge_15_29_0_0 + edge_19_29_0_0
   + edge_22_29_0_0 + edge_24_29_0_0 + edge_25_29_0_0 + edge_27_29_0_0
   + edge_28_29_0_0 = 1
 consume_one_flow_unit_29: flow_13_29_0_0 + flow_15_29_0_0 + flow_19_29_0_0
   + flow_22_29_0_0 + flow_24_29_0_0 + flow_25_29_0_0 + flow_27_29_0_0
   + flow_28_29_0_0 - flow_29_24_0_0 - flow_29_27_0_0 - flow_29_28_0_0 = 1
 one_parent_30: edge_0_30_0_0 + edge_1_30_0_0 + edge_2_30_0_0
   + edge_3_30_0_0 = 1
 consume_one_flow_unit_30: flow_0_30_0_0 + flow_1_30_0_0 + flow_2_30_0_0
   + flow_3_30_0_0 - flow_30_1_0_0 - flow_30_2_0_0 - flow_30_3_0_0 = 1
 root_flow: flow_0_1_0_0 + flow_0_2_0_0 + flow_0_3_0_0 + flow_0_13_0_0
   + flow_0_15_0_0 + flow_0_19_0_0 + flow_0_22_0_0 + flow_0_25_0_0
   + flow_0_28_0_0 + flow_0_30_0_0 = 30
 inactive_no_flow_0_1_0_0: flow_0_1_0_0 - 1000 edge_0_1_0_0 <= 0
 inactive_no_flow_0_2_0_0: flow_0_2_0_0 - 1000 edge_0_2_0_0 <= 0
 inactive_no_flow_0_3_0_0: flow_0_3_0_0 - 1000 edge_0_3_0_0 <= 0
 inactive_no_flow_0_13_0_0: flow_0_13_0_0 - 1000 edge_0_13_0_0 <= 0
 inactive_no_flow_0_15_0_0: flow_0_15_0_0 - 1000 edge_0_15_0_0 <= 0
 inactive_no_flow_0_19_0_0: flow_0_19_0_0 - 1000 edge_0_19_0_0 <= 0
 inactive_no_flow_0_22_0_0: flow_0_22_0_0 - 1000 edge_0_22_0_0 <= 0
 inactive_no_flow_0_25_0_0: flow_0_25_0_0 - 1000 edge_0_25_0_0 <= 0
 inactive_no_flow_0_28_0_0: flow_0_28_0_0 - 1000 edge_0_28_0_0 <= 0
 inactive_no_flow_0_30_0_0: flow_0_30_0_0 - 1000 edge_0_30_0_0 <= 0
 inactive_no_flow_1_2_0_0: flow_1_2_0_0 - 1000 edge_1_2_0_0 <= 0
 inactive_no_flow_1_3_0_0: flow_1_3_0_0 - 1000 edge_1_3_0_0 <= 0
 inactive_no_flow_1_4_0_0: flow_1_4_0_0 - 1000 edge_1_4_0_0 <= 0
 inactive_no_flow_1_30_0_0: flow_1_30_0_0 - 1000 edge_1_30_0_0 <= 0
 inactive_no_flow_2_1_0_0: flow_2_1_0_0 - 1000 edge_2_1_0_0 <= 0
 inactive_no_flow_2_3_0_0: flow_2_3_0_0 - 1000 edge_2_3_0_0 <= 0
 inactive_no_flow_2_4_0_0: flow_2_4_0_0 - 1000 edge_2_4_0_0 <= 0
 inactive_no_flow_2_5_0_0: flow_2_5_0_0 - 1000 edge_2_5_0_0 <= 0
 inactive_no_flow_2_13_0_0: flow_2_13_0_0 - 1000 edge_2_13_0_0 <= 0
 inactive_no_flow_2_30_0_0: flow_2_30_0_0 - 1000 edge_2_30_0_0 <= 0
 inactive_no_flow_3_1_0_0: flow_3_1_0_0 - 1000 edge_3_1_0_0 <= 0
 inactive_no_flow_3_2_0_0: flow_3_2_0_0 - 1000 edge_3_2_0_0 <= 0
 inactive_no_flow_3_4_0_0: flow_3_4_0_0 - 1000 edge_3_4_0_0 <= 0
 inactive_no_flow_3_5_0_0: flow_3_5_0_0 - 1000 edge_3_5_0_0 <= 0
 inactive_no_flow_3_6_0_0: flow_3_6_0_0 - 1000 edge_3_6_0_0 <= 0
 inactive_no_flow_3_9_0_0: flow_3_9_0_0 - 1000 edge_3_9_0_0 <= 0
 inactive_no_flow_3_10_0_0: flow_3_10_0_0 - 1000 edge_3_10_0_0 <= 0
 inactive_no_flow_3_11_0_0: flow_3_11_0_0 - 1000 edge_3_11_0_0 <= 0
 inactive_no_flow_3_13_0_0: flow_3_13_0_0 - 1000 edge_3_13_0_0 <= 0
 inactive_no_flow_3_15_0_0: flow_3_15_0_0 - 1000 edge_3_15_0_0 <= 0
 inactive_no_flow_3_16_0_0: flow_3_16_0_0 - 1000 edge_3_16_0_0 <= 0
 inactive_no_flow_3_17_0_0: flow_3_17_0_0 - 1000 edge_3_17_0_0 <= 0
 inactive_no_flow_3_18_0_0: flow_3_18_0_0 - 1000 edge_3_18_0_0 <= 0
 inactive_no_flow_3_19_0_0: flow_3_19_0_0 - 1000 edge_3_19_0_0 <= 0
 inactive_no_flow_3_25_0_0: flow_3_25_0_0 - 1000 edge_3_25_0_0 <= 0
 inactive_no_flow_3_30_0_0: flow_3_30_0_0 - 1000 edge_3_30_0_0 <= 0
 inactive_no_flow_5_1_0_0: flow_5_1_0_0 - 1000 edge_5_1_0_0 <= 0
 inactive_no_flow_5_2_0_0: flow_5_2_0_0 - 1000 edge_5_2_0_0 <= 0
 inactive_no_flow_5_3_0_0: flow_5_3_0_0 - 1000 edge_5_3_0_0 <= 0
 inactive_no_flow_5_4_0_0: flow_5_4_0_0 - 1000 edge_5_4_0_0 <= 0
 inactive_no_flow_5_6_0_0: flow_5_6_0_0 - 1000 edge_5_6_0_0 <= 0
 inactive_no_flow_5_9_0_0: flow_5_9_0_0 - 1000 edge_5_9_0_0 <= 0
 inactive_no_flow_5_10_0_0: flow_5_10_0_0 - 1000 edge_5_10_0_0 <= 0
 inactive_no_flow_5_11_0_0: flow_5_11_0_0 - 1000 edge_5_11_0_0 <= 0
 inactive_no_flow_5_13_0_0: flow_5_13_0_0 - 1000 edge_5_13_0_0 <= 0
 inactive_no_flow_5_15_0_0: flow_5_15_0_0 - 1000 edge_5_15_0_0 <= 0
 inactive_no_flow_5_16_0_0: flow_5_16_0_0 - 1000 edge_5_16_0_0 <= 0
 inactive_no_flow_5_19_0_0: flow_5_19_0_0 - 1000 edge_5_19_0_0 <= 0
 inactive_no_flow_6_4_0_0: flow_6_4_0_0 - 1000 edge_6_4_0_0 <= 0
 inactive_no_flow_6_9_0_0: flow_6_9_0_0 - 1000 edge_6_9_0_0 <= 0
 inactive_no_flow_10_9_0_0: flow_10_9_0_0 - 1000 edge_10_9_0_0 <= 0
 inactive_no_flow_10_11_0_0: flow_10_11_0_0 - 1000 edge_10_11_0_0 <= 0
 inactive_no_flow_11_9_0_0: flow_11_9_0_0 - 1000 edge_11_9_0_0 <= 0
 inactive_no_flow_11_10_0_0: flow_11_10_0_0 - 1000 edge_11_10_0_0 <= 0
 inactive_no_flow_11_15_0_0: flow_11_15_0_0 - 1000 edge_11_15_0_0 <= 0
 inactive_no_flow_11_16_0_0: flow_11_16_0_0 - 1000 edge_11_16_0_0 <= 0
 inactive_no_flow_13_1_0_0: flow_13_1_0_0 - 1000 edge_13_1_0_0 <= 0
 inactive_no_flow_13_2_0_0: flow_13_2_0_0 - 1000 edge_13_2_0_0 <= 0
 inactive_no_flow_13_3_0_0: flow_13_3_0_0 - 1000 edge_13_3_0_0 <= 0
 inactive_no_flow_13_4_0_0: flow_13_4_0_0 - 1000 edge_13_4_0_0 <= 0
 inactive_no_flow_13_5_0_0: flow_13_5_0_0 - 1000 edge_13_5_0_0 <= 0
 inactive_no_flow_13_6_0_0: flow_13_6_0_0 - 1000 edge_13_6_0_0 <= 0
 inactive_no_flow_13_9_0_0: flow_13_9_0_0 - 1000 edge_13_9_0_0 <= 0
 inactive_no_flow_13_10_0_0: flow_13_10_0_0 - 1000 edge_13_10_0_0 <= 0
 inactive_no_flow_13_11_0_0: flow_13_11_0_0 - 1000 edge_13_11_0_0 <= 0
 inactive_no_flow_13_14_0_0: flow_13_14_0_0 - 1000 edge_13_14_0_0 <= 0
 inactive_no_flow_13_15_0_0: flow_13_15_0_0 - 1000 edge_13_15_0_0 <= 0
 inactive_no_flow_13_16_0_0: flow_13_16_0_0 - 1000 edge_13_16_0_0 <= 0
 inactive_no_flow_13_17_0_0: flow_13_17_0_0 - 1000 edge_13_17_0_0 <= 0
 inactive_no_flow_13_18_0_0: flow_13_18_0_0 - 1000 edge_13_18_0_0 <= 0
 inactive_no_flow_13_19_0_0: flow_13_19_0_0 - 1000 edge_13_19_0_0 <= 0
 inactive_no_flow_13_22_0_0: flow_13_22_0_0 - 1000 edge_13_22_0_0 <= 0
 inactive_no_flow_13_24_0_0: flow_13_24_0_0 - 1000 edge_13_24_0_0 <= 0
 inactive_no_flow_13_25_0_0: flow_13_25_0_0 - 1000 edge_13_25_0_0 <= 0
 inactive_no_flow_13_28_0_0: flow_13_28_0_0 - 1000 edge_13_28_0_0 <= 0
 inactive_no_flow_13_29_0_0: flow_13_29_0_0 - 1000 edge_13_29_0_0 <= 0
 inactive_no_flow_15_1_0_0: flow_15_1_0_0 - 1000 edge_15_1_0_0 <= 0
 inactive_no_flow_15_2_0_0: flow_15_2_0_0 - 1000 edge_15_2_0_0 <= 0
 inactive_no_flow_15_3_0_0: flow_15_3_0_0 - 1000 edge_15_3_0_0 <= 0
 inactive_no_flow_15_5_0_0: flow_15_5_0_0 - 1000 edge_15_5_0_0 <= 0
 inactive_no_flow_15_6_0_0: flow_15_6_0_0 - 1000 edge_15_6_0_0 <= 0
 inactive_no_flow_15_9_0_0: flow_15_9_0_0 - 1000 edge_15_9_0_0 <= 0
 inactive_no_flow_15_10_0_0: flow_15_10_0_0 - 1000 edge_15_10_0_0 <= 0
 inactive_no_flow_15_11_0_0: flow_15_11_0_0 - 1000 edge_15_11_0_0 <= 0
 inactive_no_flow_15_13_0_0: flow_15_13_0_0 - 1000 edge_15_13_0_0 <= 0
 inactive_no_flow_15_14_0_0: flow_15_14_0_0 - 1000 edge_15_14_0_0 <= 0
 inactive_no_flow_15_16_0_0: flow_15_16_0_0 - 1000 edge_15_16_0_0 <= 0
 inactive_no_flow_15_17_0_0: flow_15_17_0_0 - 1000 edge_15_17_0_0 <= 0
 inactive_no_flow_15_18_0_0: flow_15_18_0_0 - 1000 edge_15_18_0_0 <= 0
 inactive_no_flow_15_19_0_0: flow_15_19_0_0 - 1000 edge_15_19_0_0 <= 0
 inactive_no_flow_15_22_0_0: flow_15_22_0_0 - 1000 edge_15_22_0_0 <= 0
 inactive_no_flow_15_25_0_0: flow_15_25_0_0 - 1000 edge_15_25_0_0 <= 0
 inactive_no_flow_15_28_0_0: flow_15_28_0_0 - 1000 edge_15_28_0_0 <= 0
 inactive_no_flow_15_29_0_0: flow_15_29_0_0 - 1000 edge_15_29_0_0 <= 0
 inactive_no_flow_16_17_0_0: flow_16_17_0_0 - 1000 edge_16_17_0_0 <= 0
 inactive_no_flow_17_18_0_0: flow_17_18_0_0 - 1000 edge_17_18_0_0 <= 0
 inactive_no_flow_17_19_0_0: flow_17_19_0_0 - 1000 edge_17_19_0_0 <= 0
 inactive_no_flow_17_22_0_0: flow_17_22_0_0 - 1000 edge_17_22_0_0 <= 0
 inactive_no_flow_18_16_0_0: flow_18_16_0_0 - 1000 edge_18_16_0_0 <= 0
 inactive_no_flow_18_17_0_0: flow_18_17_0_0 - 1000 edge_18_17_0_0 <= 0
 inactive_no_flow_18_22_0_0: flow_18_22_0_0 - 1000 edge_18_22_0_0 <= 0
 inactive_no_flow_18_24_0_0: flow_18_24_0_0 - 1000 edge_18_24_0_0 <= 0
 inactive_no_flow_18_28_0_0: flow_18_28_0_0 - 1000 edge_18_28_0_0 <= 0
 inactive_no_flow_19_1_0_0: flow_19_1_0_0 - 1000 edge_19_1_0_0 <= 0
 inactive_no_flow_19_2_0_0: flow_19_2_0_0 - 1000 edge_19_2_0_0 <= 0
 inactive_no_flow_19_3_0_0: flow_19_3_0_0 - 1000 edge_19_3_0_0 <= 0
 inactive_no_flow_19_5_0_0: flow_19_5_0_0 - 1000 edge_19_5_0_0 <= 0
 inactive_no_flow_19_6_0_0: flow_19_6_0_0 - 1000 edge_19_6_0_0 <= 0
 inactive_no_flow_19_9_0_0: flow_19_9_0_0 - 1000 edge_19_9_0_0 <= 0
 inactive_no_flow_19_10_0_0: flow_19_10_0_0 - 1000 edge_19_10_0_0 <= 0
 inactive_no_flow_19_11_0_0: flow_19_11_0_0 - 1000 edge_19_11_0_0 <= 0
 inactive_no_flow_19_13_0_0: flow_19_13_0_0 - 1000 edge_19_13_0_0 <= 0
 inactive_no_flow_19_14_0_0: flow_19_14_0_0 - 1000 edge_19_14_0_0 <= 0
 inactive_no_flow_19_15_0_0: flow_19_15_0_0 - 1000 edge_19_15_0_0 <= 0
 inactive_no_flow_19_16_0_0: flow_19_16_0_0 - 1000 edge_19_16_0_0 <= 0
 inactive_no_flow_19_17_0_0: flow_19_17_0_0 - 1000 edge_19_17_0_0 <= 0
 inactive_no_flow_19_18_0_0: flow_19_18_0_0 - 1000 edge_19_18_0_0 <= 0
 inactive_no_flow_19_21_0_0: flow_19_21_0_0 - 1000 edge_19_21_0_0 <= 0
 inactive_no_flow_19_22_0_0: flow_19_22_0_0 - 1000 edge_19_22_0_0 <= 0
 inactive_no_flow_19_24_0_0: flow_19_24_0_0 - 1000 edge_19_24_0_0 <= 0
 inactive_no_flow_19_25_0_0: flow_19_25_0_0 - 1000 edge_19_25_0_0 <= 0
 inactive_no_flow_19_28_0_0: flow_19_28_0_0 - 1000 edge_19_28_0_0 <= 0
 inactive_no_flow_19_29_0_0: flow_19_29_0_0 - 1000 edge_19_29_0_0 <= 0
 inactive_no_flow_21_18_0_0: flow_21_18_0_0 - 1000 edge_21_18_0_0 <= 0
 inactive_no_flow_22_1_0_0: flow_22_1_0_0 - 1000 edge_22_1_0_0 <= 0
 inactive_no_flow_22_2_0_0: flow_22_2_0_0 - 1000 edge_22_2_0_0 <= 0
 inactive_no_flow_22_3_0_0: flow_22_3_0_0 - 1000 edge_22_3_0_0 <= 0
 inactive_no_flow_22_5_0_0: flow_22_5_0_0 - 1000 edge_22_5_0_0 <= 0
 inactive_no_flow_22_6_0_0: flow_22_6_0_0 - 1000 edge_22_6_0_0 <= 0
 inactive_no_flow_22_10_0_0: flow_22_10_0_0 - 1000 edge_22_10_0_0 <= 0
 inactive_no_flow_22_11_0_0: flow_22_11_0_0 - 1000 edge_22_11_0_0 <= 0
 inactive_no_flow_22_13_0_0: flow_22_13_0_0 - 1000 edge_22_13_0_0 <= 0
 inactive_no_flow_22_14_0_0: flow_22_14_0_0 - 1000 edge_22_14_0_0 <= 0
 inactive_no_flow_22_15_0_0: flow_22_15_0_0 - 1000 edge_22_15_0_0 <= 0
 inactive_no_flow_22_16_0_0: flow_22_16_0_0 - 1000 edge_22_16_0_0 <= 0
 inactive_no_flow_22_17_0_0: flow_22_17_0_0 - 1000 edge_22_17_0_0 <= 0
 inactive_no_flow_22_18_0_0: flow_22_18_0_0 - 1000 edge_22_18_0_0 <= 0
 inactive_no_flow_22_19_0_0: flow_22_19_0_0 - 1000 edge_22_19_0_0 <= 0
 inactive_no_flow_22_21_0_0: flow_22_21_0_0 - 1000 edge_22_21_0_0 <= 0
 inactive_no_flow_22_24_0_0: flow_22_24_0_0 - 1000 edge_22_24_0_0 <= 0
 inactive_no_flow_22_25_0_0: flow_22_25_0_0 - 1000 edge_22_25_0_0 <= 0
 inactive_no_flow_22_28_0_0: flow_22_28_0_0 - 1000 edge_22_28_0_0 <= 0
 inactive_no_flow_22_29_0_0: flow_22_29_0_0 - 1000 edge_22_29_0_0 <= 0
 inactive_no_flow_24_25_0_0: flow_24_25_0_0 - 1000 edge_24_25_0_0 <= 0
 inactive_no_flow_24_28_0_0: flow_24_28_0_0 - 1000 edge_24_28_0_0 <= 0
 inactive_no_flow_24_29_0_0: flow_24_29_0_0 - 1000 edge_24_29_0_0 <= 0
 inactive_no_flow_25_1_0_0: flow_25_1_0_0 - 1000 edge_25_1_0_0 <= 0
 inactive_no_flow_25_3_0_0: flow_25_3_0_0 - 1000 edge_25_3_0_0 <= 0
 inactive_no_flow_25_6_0_0: flow_25_6_0_0 - 1000 edge_25_6_0_0 <= 0
 inactive_no_flow_25_10_0_0: flow_25_10_0_0 - 1000 edge_25_10_0_0 <= 0
 inactive_no_flow_25_11_0_0: flow_25_11_0_0 - 1000 edge_25_11_0_0 <= 0
 inactive_no_flow_25_13_0_0: flow_25_13_0_0 - 1000 edge_25_13_0_0 <= 0
 inactive_no_flow_25_15_0_0: flow_25_15_0_0 - 1000 edge_25_15_0_0 <= 0
 inactive_no_flow_25_17_0_0: flow_25_17_0_0 - 1000 edge_25_17_0_0 <= 0
 inactive_no_flow_25_18_0_0: flow_25_18_0_0 - 1000 edge_25_18_0_0 <= 0
 inactive_no_flow_25_19_0_0: flow_25_19_0_0 - 1000 edge_25_19_0_0 <= 0
 inactive_no_flow_25_22_0_0: flow_25_22_0_0 - 1000 edge_25_22_0_0 <= 0
 inactive_no_flow_25_24_0_0: flow_25_24_0_0 - 1000 edge_25_24_0_0 <= 0
 inactive_no_flow_25_27_0_0: flow_25_27_0_0 - 1000 edge_25_27_0_0 <= 0
 inactive_no_flow_25_28_0_0: flow_25_28_0_0 - 1000 edge_25_28_0_0 <= 0
 inactive_no_flow_25_29_0_0: flow_25_29_0_0 - 1000 edge_25_29_0_0 <= 0
 inactive_no_flow_27_29_0_0: flow_27_29_0_0 - 1000 edge_27_29_0_0 <= 0
 inactive_no_flow_28_2_0_0: flow_28_2_0_0 - 1000 edge_28_2_0_0 <= 0
 inactive_no_flow_28_18_0_0: flow_28_18_0_0 - 1000 edge_28_18_0_0 <= 0
 inactive_no_flow_28_22_0_0: flow_28_22_0_0 - 1000 edge_28_22_0_0 <= 0
 inactive_no_flow_28_24_0_0: flow_28_24_0_0 - 1000 edge_28_24_0_0 <= 0
 inactive_no_flow_28_25_0_0: flow_28_25_0_0 - 1000 edge_28_25_0_0 <= 0
 inactive_no_flow_28_27_0_0: flow_28_27_0_0 - 1000 edge_28_27_0_0 <= 0
 inactive_no_flow_28_29_0_0: flow_28_29_0_0 - 1000 edge_28_29_0_0 <= 0
 inactive_no_flow_29_24_0_0: flow_29_24_0_0 - 1000 edge_29_24_0_0 <= 0
 inactive_no_flow_29_27_0_0: flow_29_27_0_0 - 1000 edge_29_27_0_0 <= 0
 inactive_no_flow_29_28_0_0: flow_29_28_0_0 - 1000 edge_29_28_0_0 <= 0
 inactive_no_flow_30_1_0_0: flow_30_1_0_0 - 1000 edge_30_1_0_0 <= 0
 inactive_no_flow_30_2_0_0: flow_30_2_0_0 - 1000 edge_30_2_0_0 <= 0
 inactive_no_flow_30_3_0_0: flow_30_3_0_0 - 1000 edge_30_3_0_0 <= 0
Bounds
Binaries
 edge_0_1_0_0 edge_0_2_0_0 edge_0_3_0_0 edge_0_13_0_0 edge_0_15_0_0
 edge_0_19_0_0 edge_0_22_0_0 edge_0_25_0_0 edge_0_28_0_0 edge_0_30_0_0
 edge_1_2_0_0 edge_1_3_0_0 edge_1_4_0_0 edge_1_30_0_0 edge_2_1_0_0
 edge_2_3_0_0 edge_2_4_0_0 edge_2_5_0_0 edge_2_13_0_0 edge_2_30_0_0
 edge_3_1_0_0 edge_3_2_0_0 edge_3_4_0_0 edge_3_5_0_0 edge_3_6_0_0
 edge_3_9_0_0 edge_3_10_0_0 edge_3_11_0_0 edge_3_13_0_0 edge_3_15_0_0
 edge_3_16_0_0 edge_3_17_0_0 edge_3_18_0_0 edge_3_19_0_0 edge_3_25_0_0
 edge_3_30_0_0 edge_5_1_0_0 edge_5_2_0_0 edge_5_3_0_0 edge_5_4_0_0
 edge_5_6_0_0 edge_5_9_0_0 edge_5_10_0_0 edge_5_11_0_0 edge_5_13_0_0
 edge_5_15_0_0 edge_5_16_0_0 edge_5_19_0_0 edge_6_4_0_0 edge_6_9_0_0
 edge_10_9_0_0 edge_10_11_0_0 edge_11_9_0_0 edge_11_10_0_0 edge_11_15_0_0
 edge_11_16_0_0 edge_13_1_0_0 edge_13_2_0_0 edge_13_3_0_0 edge_13_4_0_0
 edge_13_5_0_0 edge_13_6_0_0 edge_13_9_0_0 edge_13_10_0_0 edge_13_11_0_0
 edge_13_14_0_0 edge_13_15_0_0 edge_13_16_0_0 edge_13_17_0_0 edge_13_18_0_0
 edge_13_19_0_0 edge_13_22_0_0 edge_13_24_0_0 edge_13_25_0_0 edge_13_28_0_0
 edge_13_29_0_0 edge_15_1_0_0 edge_15_2_0_0 edge_15_3_0_0 edge_15_5_0_0
 edge_15_6_0_0 edge_15_9_0_0 edge_15_10_0_0 edge_15_11_0_0 edge_15_13_0_0
 edge_15_14_0_0 edge_15_16_0_0 edge_15_17_0_0 edge_15_18_0_0 edge_15_19_0_0
 edge_15_22_0_0 edge_15_25_0_0 edge_15_28_0_0 edge_15_29_0_0 edge_16_17_0_0
 edge_17_18_0_0 edge_17_19_0_0 edge_17_22_0_0 edge_18_16_0_0 edge_18_17_0_0
 edge_18_22_0_0 edge_18_24_0_0 edge_18_28_0_0 edge_19_1_0_0 edge_19_2_0_0
 edge_19_3_0_0 edge_19_5_0_0 edge_19_6_0_0 edge_19_9_0_0 edge_19_10_0_0
 edge_19_11_0_0 edge_19_13_0_0 edge_19_14_0_0 edge_19_15_0_0 edge_19_16_0_0
 edge_19_17_0_0 edge_19_18_0_0 edge_19_21_0_0 edge_19_22_0_0 edge_19_24_0_0
 edge_19_25_0_0 edge_19_28_0_0 edge_19_29_0_0 edge_21_18_0_0 edge_22_1_0_0
 edge_22_2_0_0 edge_22_3_0_0 edge_22_5_0_0 edge_22_6_0_0 edge_22_10_0_0
 edge_22_11_0_0 edge_22_13_0_0 edge_22_14_0_0 edge_22_15_0_0 edge_22_16_0_0
 edge_22_17_0_0 edge_22_18_0_0 edge_22_19_0_0 edge_22_21_0_0 edge_22_24_0_0
 edge_22_25_0_0 edge_22_28_0_0 edge_22_29_0_0 edge_24_25_0_0 edge_24_28_0_0
 edge_24_29_0_0 edge_25_1_0_0 edge_25_3_0_0 edge_25_6_0_0 edge_25_10_0_0
 edge_25_11_0_0 edge_25_13_0_0 edge_25_15_0_0 edge_25_17_0_0 edge_25_18_0_0
 edge_25_19_0_0 edge_25_22_0_0 edge_25_24_0_0 edge_25_27_0_0 edge_25_28_0_0
 edge_25_29_0_0 edge_27_29_0_0 edge_28_2_0_0 edge_28_18_0_0 edge_28_22_0_0
 edge_28_24_0_0 edge_28_25_0_0 edge_28_27_0_0 edge_28_29_0_0 edge_29_24_0_0
 edge_29_27_0_0 edge_29_28_0_0 edge_30_1_0_0 edge_30_2_0_0 edge_30_3_0_0
End
